p cnf 241 1151
135 143 145 0
112 207 0
83 108 155 0
80 109 141 0
103 114 0
142 149 171 0
119 137 0
93 133 151 158 0
147 163 177 179 0
106 124 128 167 0
98 102 0
117 152 218 0
91 221 0
96 148 194 198 0
87 89 160 208 0
84 86 110 134 0
82 140 0
75 77 105 150 0
72 113 0
100 126 170 0
120 172 176 0
178 180 183 184 188 0
192 197 201 204 0
206 211 0
79 81 212 214 0
73 116 215 0
121 153 174 216 0
94 95 217 219 0
220 222 223 225 226 0
138 164 227 0
146 182 186 190 228 0
195 199 203 205 229 0
169 231 232 234 0
88 90 130 161 236 237 0
85 156 159 209 238 239 0
107 111 154 240 241 0
74 104 0
69 70 92 132 0
65 66 68 0
64 162 0
63 196 200 0
61 123 166 0
56 57 59 60 0
53 54 55 115 213 0
51 52 173 0
-193 -230 0
-193 -207 0
-155 -193 0
-109 -193 0
-49 -193 0
-207 -230 0
-155 -230 0
-109 -230 0
-49 -230 0
-155 -207 0
-109 -207 0
-49 -207 0
-109 -155 0
-49 -155 0
-49 -109 0
-93 -119 0
-119 -163 0
-48 -119 0
-46 -119 0
-106 -119 0
-93 -163 0
-48 -93 0
-46 -93 0
-93 -106 0
-48 -163 0
-46 -163 0
-106 -163 0
-46 -48 0
-48 -106 0
-46 -106 0
-148 -189 0
-189 -233 0
-87 -189 0
-86 -189 0
-77 -189 0
-148 -233 0
-87 -148 0
-86 -148 0
-77 -148 0
-87 -233 0
-86 -233 0
-77 -233 0
-86 -87 0
-77 -87 0
-77 -86 0
-100 -172 0
-100 -131 0
-45 -100 0
-100 -178 0
-100 -192 0
-131 -172 0
-45 -172 0
-172 -178 0
-172 -192 0
-45 -131 0
-131 -178 0
-131 -192 0
-45 -178 0
-45 -192 0
-178 -192 0
-127 -206 0
-81 -127 0
-127 -215 0
-44 -127 0
-127 -217 0
-81 -206 0
-206 -215 0
-44 -206 0
-206 -217 0
-81 -215 0
-44 -81 0
-81 -217 0
-44 -215 0
-215 -217 0
-44 -217 0
-71 -74 0
-74 -175 0
-70 -74 0
-68 -74 0
-74 -187 0
-71 -175 0
-70 -71 0
-68 -71 0
-71 -187 0
-70 -175 0
-68 -175 0
-175 -187 0
-68 -70 0
-70 -187 0
-68 -187 0
-119 -193 0
-189 -193 0
-100 -193 0
-127 -193 0
-74 -193 0
-119 -189 0
-100 -119 0
-119 -127 0
-74 -119 0
-100 -189 0
-127 -189 0
-74 -189 0
-100 -127 0
-74 -100 0
-74 -127 0
-93 -230 0
-148 -230 0
-172 -230 0
-206 -230 0
-71 -230 0
-93 -148 0
-93 -172 0
-93 -206 0
-71 -93 0
-148 -172 0
-148 -206 0
-71 -148 0
-172 -206 0
-71 -172 0
-71 -206 0
-163 -207 0
-207 -233 0
-131 -207 0
-81 -207 0
-175 -207 0
-163 -233 0
-131 -163 0
-81 -163 0
-163 -175 0
-131 -233 0
-81 -233 0
-175 -233 0
-81 -131 0
-131 -175 0
-81 -175 0
-48 -155 0
-87 -155 0
-45 -155 0
-155 -215 0
-70 -155 0
-48 -87 0
-45 -48 0
-48 -215 0
-48 -70 0
-45 -87 0
-87 -215 0
-70 -87 0
-45 -215 0
-45 -70 0
-70 -215 0
-46 -109 0
-86 -109 0
-109 -178 0
-44 -109 0
-68 -109 0
-46 -86 0
-46 -178 0
-44 -46 0
-46 -68 0
-86 -178 0
-44 -86 0
-68 -86 0
-44 -178 0
-68 -178 0
-44 -68 0
-49 -106 0
-49 -77 0
-49 -192 0
-49 -217 0
-49 -187 0
-77 -106 0
-106 -192 0
-106 -217 0
-106 -187 0
-77 -192 0
-77 -217 0
-77 -187 0
-192 -217 0
-187 -192 0
-187 -217 0
-58 -102 0
-43 -58 0
-58 -117 0
-58 -91 0
-58 -224 0
-43 -102 0
-102 -117 0
-91 -102 0
-102 -224 0
-43 -117 0
-43 -91 0
-43 -224 0
-91 -117 0
-117 -224 0
-91 -224 0
-126 -157 0
-42 -126 0
-126 -180 0
-41 -126 0
-126 -197 0
-42 -157 0
-157 -180 0
-41 -157 0
-157 -197 0
-42 -180 0
-41 -42 0
-42 -197 0
-41 -180 0
-180 -197 0
-41 -197 0
-79 -122 0
-116 -122 0
-39 -122 0
-122 -174 0
-95 -122 0
-79 -116 0
-39 -79 0
-79 -174 0
-79 -95 0
-39 -116 0
-116 -174 0
-95 -116 0
-39 -174 0
-39 -95 0
-95 -174 0
-195 -227 0
-227 -231 0
-227 -236 0
-209 -227 0
-154 -227 0
-195 -231 0
-195 -236 0
-195 -209 0
-154 -195 0
-231 -236 0
-209 -231 0
-154 -231 0
-209 -236 0
-154 -236 0
-154 -209 0
-104 -118 0
-92 -104 0
-66 -104 0
-104 -162 0
-47 -104 0
-92 -118 0
-66 -118 0
-118 -162 0
-47 -118 0
-66 -92 0
-92 -162 0
-47 -92 0
-66 -162 0
-47 -66 0
-47 -162 0
-38 -60 0
-37 -38 0
-38 -55 0
-36 -38 0
-38 -52 0
-37 -60 0
-55 -60 0
-36 -60 0
-52 -60 0
-37 -55 0
-36 -37 0
-37 -52 0
-36 -55 0
-52 -55 0
-36 -52 0
-58 -126 0
-58 -122 0
-58 -227 0
-58 -104 0
-38 -58 0
-122 -126 0
-126 -227 0
-104 -126 0
-38 -126 0
-122 -227 0
-104 -122 0
-38 -122 0
-104 -227 0
-38 -227 0
-38 -104 0
-102 -157 0
-79 -102 0
-102 -195 0
-102 -118 0
-60 -102 0
-79 -157 0
-157 -195 0
-118 -157 0
-60 -157 0
-79 -195 0
-79 -118 0
-60 -79 0
-118 -195 0
-60 -195 0
-60 -118 0
-42 -43 0
-43 -116 0
-43 -231 0
-43 -92 0
-37 -43 0
-42 -116 0
-42 -231 0
-42 -92 0
-37 -42 0
-116 -231 0
-92 -116 0
-37 -116 0
-92 -231 0
-37 -231 0
-37 -92 0
-117 -180 0
-39 -117 0
-117 -236 0
-66 -117 0
-55 -117 0
-39 -180 0
-180 -236 0
-66 -180 0
-55 -180 0
-39 -236 0
-39 -66 0
-39 -55 0
-66 -236 0
-55 -236 0
-55 -66 0
-41 -91 0
-91 -174 0
-91 -209 0
-91 -162 0
-36 -91 0
-41 -174 0
-41 -209 0
-41 -162 0
-36 -41 0
-174 -209 0
-162 -174 0
-36 -174 0
-162 -209 0
-36 -209 0
-36 -162 0
-197 -224 0
-95 -224 0
-154 -224 0
-47 -224 0
-52 -224 0
-95 -197 0
-154 -197 0
-47 -197 0
-52 -197 0
-95 -154 0
-47 -95 0
-52 -95 0
-47 -154 0
-52 -154 0
-47 -52 0
-147 -151 0
-35 -151 0
-34 -151 0
-35 -147 0
-34 -147 0
-34 -35 0
-33 -120 0
-120 -183 0
-32 -120 0
-33 -183 0
-32 -33 0
-32 -183 0
-182 -199 0
-88 -182 0
-159 -182 0
-88 -199 0
-159 -199 0
-88 -159 0
-59 -61 0
-54 -61 0
-61 -101 0
-54 -59 0
-59 -101 0
-54 -101 0
-120 -151 0
-151 -182 0
-61 -151 0
-120 -182 0
-61 -120 0
-61 -182 0
-33 -147 0
-147 -199 0
-59 -147 0
-33 -199 0
-33 -59 0
-59 -199 0
-35 -183 0
-35 -88 0
-35 -54 0
-88 -183 0
-54 -183 0
-54 -88 0
-32 -34 0
-34 -159 0
-34 -101 0
-32 -159 0
-32 -101 0
-101 -159 0
-145 -202 0
-141 -145 0
-103 -145 0
-31 -145 0
-141 -202 0
-103 -202 0
-31 -202 0
-103 -141 0
-31 -141 0
-31 -103 0
-137 -149 0
-62 -149 0
-29 -149 0
-149 -167 0
-62 -137 0
-29 -137 0
-137 -167 0
-29 -62 0
-62 -167 0
-29 -167 0
-113 -170 0
-113 -184 0
-28 -113 0
-113 -201 0
-170 -184 0
-28 -170 0
-170 -201 0
-28 -184 0
-184 -201 0
-28 -201 0
-25 -27 0
-24 -27 0
-27 -121 0
-27 -94 0
-24 -25 0
-25 -121 0
-25 -94 0
-24 -121 0
-24 -94 0
-94 -121 0
-164 -220 0
-220 -237 0
-220 -238 0
-220 -240 0
-164 -237 0
-164 -238 0
-164 -240 0
-237 -238 0
-237 -240 0
-238 -240 0
-145 -149 0
-113 -145 0
-27 -145 0
-145 -220 0
-113 -149 0
-27 -149 0
-149 -220 0
-27 -113 0
-113 -220 0
-27 -220 0
-137 -202 0
-170 -202 0
-25 -202 0
-164 -202 0
-137 -170 0
-25 -137 0
-137 -164 0
-25 -170 0
-164 -170 0
-25 -164 0
-62 -141 0
-141 -184 0
-24 -141 0
-141 -237 0
-62 -184 0
-24 -62 0
-62 -237 0
-24 -184 0
-184 -237 0
-24 -237 0
-29 -103 0
-28 -103 0
-103 -121 0
-103 -238 0
-28 -29 0
-29 -121 0
-29 -238 0
-28 -121 0
-28 -238 0
-121 -238 0
-31 -167 0
-31 -201 0
-31 -94 0
-31 -240 0
-167 -201 0
-94 -167 0
-167 -240 0
-94 -201 0
-201 -240 0
-94 -240 0
-133 -171 0
-171 -177 0
-22 -171 0
-171 -191 0
-20 -171 0
-128 -171 0
-133 -177 0
-22 -133 0
-133 -191 0
-20 -133 0
-128 -133 0
-22 -177 0
-177 -191 0
-20 -177 0
-128 -177 0
-22 -191 0
-20 -22 0
-22 -128 0
-20 -191 0
-128 -191 0
-20 -128 0
-19 -96 0
-18 -19 0
-19 -89 0
-19 -134 0
-19 -82 0
-19 -75 0
-18 -96 0
-89 -96 0
-96 -134 0
-82 -96 0
-75 -96 0
-18 -89 0
-18 -134 0
-18 -82 0
-18 -75 0
-89 -134 0
-82 -89 0
-75 -89 0
-82 -134 0
-75 -134 0
-75 -82 0
-72 -176 0
-67 -72 0
-17 -72 0
-72 -188 0
-16 -72 0
-72 -204 0
-67 -176 0
-17 -176 0
-176 -188 0
-16 -176 0
-176 -204 0
-17 -67 0
-67 -188 0
-16 -67 0
-67 -204 0
-17 -188 0
-16 -17 0
-17 -204 0
-16 -188 0
-188 -204 0
-16 -204 0
-15 -211 0
-15 -212 0
-15 -73 0
-15 -97 0
-15 -216 0
-15 -219 0
-211 -212 0
-73 -211 0
-97 -211 0
-211 -216 0
-211 -219 0
-73 -212 0
-97 -212 0
-212 -216 0
-212 -219 0
-73 -97 0
-73 -216 0
-73 -219 0
-97 -216 0
-97 -219 0
-216 -219 0
-186 -222 0
-203 -222 0
-222 -232 0
-130 -222 0
-156 -222 0
-111 -222 0
-186 -203 0
-186 -232 0
-130 -186 0
-156 -186 0
-111 -186 0
-203 -232 0
-130 -203 0
-156 -203 0
-111 -203 0
-130 -232 0
-156 -232 0
-111 -232 0
-130 -156 0
-111 -130 0
-111 -156 0
-30 -139 0
-136 -139 0
-69 -139 0
-65 -139 0
-64 -139 0
-14 -139 0
-30 -136 0
-30 -69 0
-30 -65 0
-30 -64 0
-14 -30 0
-69 -136 0
-65 -136 0
-64 -136 0
-14 -136 0
-65 -69 0
-64 -69 0
-14 -69 0
-64 -65 0
-14 -65 0
-14 -64 0
-63 -166 0
-57 -63 0
-13 -63 0
-63 -213 0
-12 -63 0
-51 -63 0
-57 -166 0
-13 -166 0
-166 -213 0
-12 -166 0
-51 -166 0
-13 -57 0
-57 -213 0
-12 -57 0
-51 -57 0
-13 -213 0
-12 -13 0
-13 -51 0
-12 -213 0
-51 -213 0
-12 -51 0
-19 -171 0
-72 -171 0
-15 -171 0
-171 -222 0
-139 -171 0
-63 -171 0
-19 -72 0
-15 -19 0
-19 -222 0
-19 -139 0
-19 -63 0
-15 -72 0
-72 -222 0
-72 -139 0
-63 -72 0
-15 -222 0
-15 -139 0
-15 -63 0
-139 -222 0
-63 -222 0
-63 -139 0
-96 -133 0
-133 -176 0
-133 -211 0
-133 -186 0
-30 -133 0
-133 -166 0
-96 -176 0
-96 -211 0
-96 -186 0
-30 -96 0
-96 -166 0
-176 -211 0
-176 -186 0
-30 -176 0
-166 -176 0
-186 -211 0
-30 -211 0
-166 -211 0
-30 -186 0
-166 -186 0
-30 -166 0
-18 -177 0
-67 -177 0
-177 -212 0
-177 -203 0
-136 -177 0
-57 -177 0
-18 -67 0
-18 -212 0
-18 -203 0
-18 -136 0
-18 -57 0
-67 -212 0
-67 -203 0
-67 -136 0
-57 -67 0
-203 -212 0
-136 -212 0
-57 -212 0
-136 -203 0
-57 -203 0
-57 -136 0
-22 -89 0
-17 -22 0
-22 -73 0
-22 -232 0
-22 -69 0
-13 -22 0
-17 -89 0
-73 -89 0
-89 -232 0
-69 -89 0
-13 -89 0
-17 -73 0
-17 -232 0
-17 -69 0
-13 -17 0
-73 -232 0
-69 -73 0
-13 -73 0
-69 -232 0
-13 -232 0
-13 -69 0
-134 -191 0
-188 -191 0
-97 -191 0
-130 -191 0
-65 -191 0
-191 -213 0
-134 -188 0
-97 -134 0
-130 -134 0
-65 -134 0
-134 -213 0
-97 -188 0
-130 -188 0
-65 -188 0
-188 -213 0
-97 -130 0
-65 -97 0
-97 -213 0
-65 -130 0
-130 -213 0
-65 -213 0
-20 -82 0
-16 -20 0
-20 -216 0
-20 -156 0
-20 -64 0
-12 -20 0
-16 -82 0
-82 -216 0
-82 -156 0
-64 -82 0
-12 -82 0
-16 -216 0
-16 -156 0
-16 -64 0
-12 -16 0
-156 -216 0
-64 -216 0
-12 -216 0
-64 -156 0
-12 -156 0
-12 -64 0
-75 -128 0
-128 -204 0
-128 -219 0
-111 -128 0
-14 -128 0
-51 -128 0
-75 -204 0
-75 -219 0
-75 -111 0
-14 -75 0
-51 -75 0
-204 -219 0
-111 -204 0
-14 -204 0
-51 -204 0
-111 -219 0
-14 -219 0
-51 -219 0
-14 -111 0
-51 -111 0
-14 -51 0
-143 -168 0
-112 -143 0
-108 -143 0
-125 -143 0
-112 -168 0
-108 -168 0
-125 -168 0
-108 -112 0
-112 -125 0
-108 -125 0
-142 -158 0
-142 -179 0
-40 -142 0
-124 -142 0
-158 -179 0
-40 -158 0
-124 -158 0
-40 -179 0
-124 -179 0
-40 -124 0
-11 -194 0
-11 -235 0
-11 -208 0
-11 -105 0
-194 -235 0
-194 -208 0
-105 -194 0
-208 -235 0
-105 -235 0
-105 -208 0
-190 -223 0
-205 -223 0
-223 -234 0
-223 -241 0
-190 -205 0
-190 -234 0
-190 -241 0
-205 -234 0
-205 -241 0
-234 -241 0
-76 -99 0
-10 -76 0
-76 -132 0
-21 -76 0
-10 -99 0
-99 -132 0
-21 -99 0
-10 -132 0
-10 -21 0
-21 -132 0
-142 -143 0
-11 -143 0
-143 -223 0
-76 -143 0
-11 -142 0
-142 -223 0
-76 -142 0
-11 -223 0
-11 -76 0
-76 -223 0
-158 -168 0
-168 -194 0
-168 -190 0
-99 -168 0
-158 -194 0
-158 -190 0
-99 -158 0
-190 -194 0
-99 -194 0
-99 -190 0
-112 -179 0
-112 -235 0
-112 -205 0
-10 -112 0
-179 -235 0
-179 -205 0
-10 -179 0
-205 -235 0
-10 -235 0
-10 -205 0
-40 -108 0
-108 -208 0
-108 -234 0
-108 -132 0
-40 -208 0
-40 -234 0
-40 -132 0
-208 -234 0
-132 -208 0
-132 -234 0
-124 -125 0
-105 -125 0
-125 -241 0
-21 -125 0
-105 -124 0
-124 -241 0
-21 -124 0
-105 -241 0
-21 -105 0
-21 -241 0
-9 -135 0
-83 -135 0
-80 -135 0
-8 -135 0
-9 -83 0
-9 -80 0
-8 -9 0
-80 -83 0
-8 -83 0
-8 -80 0
-6 -7 0
-5 -7 0
-7 -152 0
-4 -7 0
-5 -6 0
-6 -152 0
-4 -6 0
-5 -152 0
-4 -5 0
-4 -152 0
-181 -198 0
-160 -181 0
-84 -181 0
-150 -181 0
-160 -198 0
-84 -198 0
-150 -198 0
-84 -160 0
-150 -160 0
-84 -150 0
-225 -228 0
-169 -225 0
-90 -225 0
-107 -225 0
-169 -228 0
-90 -228 0
-107 -228 0
-90 -169 0
-107 -169 0
-90 -107 0
-123 -196 0
-78 -196 0
-115 -196 0
-173 -196 0
-78 -123 0
-115 -123 0
-123 -173 0
-78 -115 0
-78 -173 0
-115 -173 0
-7 -135 0
-135 -181 0
-135 -225 0
-135 -196 0
-7 -181 0
-7 -225 0
-7 -196 0
-181 -225 0
-181 -196 0
-196 -225 0
-6 -9 0
-9 -198 0
-9 -228 0
-9 -123 0
-6 -198 0
-6 -228 0
-6 -123 0
-198 -228 0
-123 -198 0
-123 -228 0
-5 -83 0
-83 -160 0
-83 -169 0
-78 -83 0
-5 -160 0
-5 -169 0
-5 -78 0
-160 -169 0
-78 -160 0
-78 -169 0
-80 -152 0
-80 -84 0
-80 -90 0
-80 -115 0
-84 -152 0
-90 -152 0
-115 -152 0
-84 -90 0
-84 -115 0
-90 -115 0
-4 -8 0
-8 -150 0
-8 -107 0
-8 -173 0
-4 -150 0
-4 -107 0
-4 -173 0
-107 -150 0
-150 -173 0
-107 -173 0
-3 -114 0
-146 -239 0
-3 -146 0
-114 -239 0
-2 -210 0
-98 -210 0
-210 -218 0
-210 -221 0
-2 -98 0
-2 -218 0
-2 -221 0
-98 -218 0
-98 -221 0
-218 -221 0
-144 -185 0
-129 -185 0
-110 -185 0
-140 -185 0
-129 -144 0
-110 -144 0
-140 -144 0
-110 -129 0
-129 -140 0
-110 -140 0
-1 -165 0
-165 -214 0
-50 -165 0
-153 -165 0
-1 -214 0
-1 -50 0
-1 -153 0
-50 -214 0
-153 -214 0
-50 -153 0
-138 -226 0
-226 -229 0
-161 -226 0
-85 -226 0
-138 -229 0
-138 -161 0
-85 -138 0
-161 -229 0
-85 -229 0
-85 -161 0
-26 -200 0
-56 -200 0
-53 -200 0
-23 -200 0
-26 -56 0
-26 -53 0
-23 -26 0
-53 -56 0
-23 -56 0
-23 -53 0
-185 -210 0
-165 -210 0
-210 -226 0
-200 -210 0
-165 -185 0
-185 -226 0
-185 -200 0
-165 -226 0
-165 -200 0
-200 -226 0
-2 -144 0
-1 -2 0
-2 -138 0
-2 -26 0
-1 -144 0
-138 -144 0
-26 -144 0
-1 -138 0
-1 -26 0
-26 -138 0
-98 -129 0
-98 -214 0
-98 -229 0
-56 -98 0
-129 -214 0
-129 -229 0
-56 -129 0
-214 -229 0
-56 -214 0
-56 -229 0
-110 -218 0
-50 -218 0
-161 -218 0
-53 -218 0
-50 -110 0
-110 -161 0
-53 -110 0
-50 -161 0
-50 -53 0
-53 -161 0
-140 -221 0
-153 -221 0
-85 -221 0
-23 -221 0
-140 -153 0
-85 -140 0
-23 -140 0
-85 -153 0
-23 -153 0
-23 -85 0
